NAME : portgen-28-2
COMMENT : portgen N=28, seed=2
TYPE : TSP
DIMENSION : 28
EDGE_WEIGHT_TYPE : EUC_2D
NODE_COORD_SECTION
1 18990 574941
2 766688 761213
3 972089 156829
4 523324 587468
5 35225 224908
6 7406 75761
7 255812 497977
8 325390 198600
9 352086 778976
10 83438 64154
11 234683 914966
12 173916 171234
13 247990 383456
14 340982 631964
15 233285 697453
16 757714 38104
17 455924 312776
18 79759 939767
19 167841 426080
20 801760 184450
21 879539 34304
22 837129 391159
23 167432 696602
24 941211 794299
25 677180 604868
26 428545 735505
27 239118 863463
28 232872 980886
